# Solution for model Model5
# Objective value = 27
y[j0_l0_i0] 1
y[j0_l1_i1] 1
y[j0_l2_i2] 1
y[j0_l3_i1] 1
x[j1l10_0_j2l20_0] 0
x[j1l10_0_j2l20_1] 0
x[j1l10_0_j2l20_2] 0
x[j1l10_0_j2l20_3] 0
x[j1l10_1_j2l20_0] 0
x[j1l10_1_j2l20_1] 0
x[j1l10_1_j2l20_2] 0
x[j1l10_1_j2l20_3] 1
x[j1l10_2_j2l20_0] 0
x[j1l10_2_j2l20_1] 0
x[j1l10_2_j2l20_2] 0
x[j1l10_2_j2l20_3] 0
x[j1l10_3_j2l20_0] 0
x[j1l10_3_j2l20_1] 0
x[j1l10_3_j2l20_2] 0
x[j1l10_3_j2l20_3] 0
s[j0_l0_i0] 1
s[j0_l1_i1] 6
s[j0_l2_i2] 6
s[j0_l3_i1] 4
Z_FO 27
